WARNING: for repeatability, setting FPU to use double precision
============================[ Problem Statistics ]=============================
|                                                                             |
|  Number of variables:           100                                         |
|  Number of clauses:             449                                         |
|  Parse time:                   0.00 s                                       |
|  Eliminated clauses:           0.00 Mb                                      |
|  Simplification time:          0.00 s                                       |
|                                                                             |
============================[ Search Statistics ]==============================
| Conflicts |          ORIGINAL         |          LEARNT          | Progress |
|           |    Vars  Clauses Literals |    Limit  Clauses Lit/Cl |          |
===============================================================================
|       100 |      96      445     1367 |      163      100      8 |  0.010 % |
|       250 |      96      445     1367 |      179      166      7 |  0.010 % |
===============================================================================
restarts              : 3
conflicts             : 268            (76593 /sec)
decisions             : 339            (0.00 % random) (96885 /sec)
propagations          : 6210           (1774793 /sec)
conflict literals     : 1997           (13.81 % deleted)
Memory used           : 13.00 MB
CPU time              : 0.003499 s

SATISFIABLE
